4 5
127 84 97 116 
0 92 93 3 11 35 30 54 48 69 14 85 12 62 59 99 14 87 23 77 20 1
1 38 41 77 76 11 18 50 53 5 71 61 85 87 11 83 70 9 81 13 58 3
2 25 31 2 2 64 72 49 51 24 14 42 81 15 87 96 45 22 91 45 25 2
3 17 16 68 63 4 9 63 64 16 99 94 63 65 84 37 13 73 29 8 89 4
4 75 73 13 16 67 66 13 17 2 87 41 14 45 74 31 14 59 12 73 33 1
